Maximize
obj: 92 x1 + 57 x2 + 49 x3 + 68 x4 + 60 x5 + 43 x6 + 67 x7 + 84 x8 + 87 x9 + 72 x10 

Subject to
c: 23 x1 + 31 x2 + 29 x3 + 44 x4 + 53 x5 + 38 x6 + 63 x7 + 85 x8 + 89 x9 + 82 x10 <= 165

Bounds
0 <= x1 <= 1
0 <= x2 <= 1
0 <= x3 <= 1
0 <= x4 <= 1
0 <= x5 <= 1
0 <= x6 <= 1
0 <= x7 <= 1
0 <= x8 <= 1
0 <= x9 <= 1
0 <= x10 <= 1

General
x1
x2
x3
x4
x5
x6
x7
x8
x9
x10

End
